
Gurobi 10.0.1 (linux64) logging started Sun Nov 26 16:05:06 2023

Set parameter LogFile to value "ArtificialInstance/ExperimentV2/S4T3K3/AdRo/gurobiSpRo33.txt"
Gurobi Optimizer version 10.0.1 build v10.0.1rc0 (linux64)

CPU model: AMD EPYC 7H12 64-Core Processor, instruction set [SSE2|AVX|AVX2]
Thread count: 128 physical cores, 128 logical processors, using up to 32 threads

Academic license 656792 - for non-commercial use only - registered to b.___@student.vu.nl
Optimize a model with 16154 rows, 15631 columns and 60524 nonzeros
Model fingerprint: 0xd4445f5e
Variable types: 1 continuous, 15630 integer (15630 binary)
Coefficient statistics:
  Matrix range     [1e+00, 4e+01]
  Objective range  [1e+00, 2e+01]
  Bounds range     [1e+00, 1e+00]
  RHS range        [1e+00, 1e+00]
Presolve removed 6277 rows and 6064 columns
Presolve time: 0.20s
Presolved: 9877 rows, 9567 columns, 37063 nonzeros
Variable types: 1 continuous, 9566 integer (9566 binary)
Found heuristic solution: objective 132.9974734

Root relaxation: objective 9.362144e+01, 3056 iterations, 0.13 seconds (0.09 work units)

    Nodes    |    Current Node    |     Objective Bounds      |     Work
 Expl Unexpl |  Obj  Depth IntInf | Incumbent    BestBd   Gap | It/Node Time

     0     0   93.62144    0   44  132.99747   93.62144  29.6%     -    0s
H    0     0                      93.6214373   93.62144  0.00%     -    0s
     0     0   93.62144    0   44   93.62144   93.62144  0.00%     -    0s

Explored 1 nodes (7824 simplex iterations) in 0.55 seconds (0.39 work units)
Thread count was 32 (of 128 available processors)

Solution count 2: 93.6214 132.997 

Optimal solution found (tolerance 1.00e-04)
Best objective 9.362143730075e+01, best bound 9.362143730075e+01, gap 0.0000%
